Route #1: 15 8 17 42 21
Route #2: 1 32 28 29 19
Route #3: 31 14 22 38 13 3
Route #4: 46 45 41 35 10 23
Route #5: 39 5 6
Route #6: 30 11 16 43 36 27 20
Route #7: 25 4 18 26 47 24 49
Route #8: 44 37 12 33 9 7 40 48 34 2
Cost 1338